param n := 5;

param minLevel := -80;

param dmax := 5.69; #for max power of 27dBm


param: LINKS : 	distance =
		[1,2]	1.63606701270728	
		[1,3]	4.305883525944853	
		[2,1]	1.63606701270728	
		[2,3]	3.3731199011770627	
		[2,4]	5.181392676612253	
		[3,1]	4.305883525944853	
		[3,2]	3.3731199011770627	
		[3,4]	4.0749470633238305	
		[3,5]	3.0212523085409684	
		[4,2]	5.181392676612253		
		[4,3]	4.0749470633238305	
		[4,5]	5.396524169737726	
		[5,3]	3.0212523085409684	
		[5,4]	5.396524169737726;